95 92 14 42 15 2 73 21 40 53 87 57 43 37 100 91 93 
72 39 67 23 75 22 41 56 74 4 55 25 
28 12 29 76 50 26 
52 7 88 90 10 32 70 1 
31 63 62 19 11 64 49 46 48 
33 65 71 9 51 81 79 78 34 3 68 24 54 80 
27 69 30 20 66 35 77 
5 83 45 36 47 82 8 18 6 94 96 97 13 58 
59 98 61 16 44 38 86 85 99 84 17 60 89 
